\* planning_problem_of_kits *\
Minimize
Costo_Total: 9150332162.4 y_Cali + 14162166374.4 y_Dagua
 + 3217647628.8 y_Jamundi + 7963091611.2 y_La_Cumbre + 11116082498.4 y_Vijes
 + 6928964460 y_Yumbo
Subject To
_C1: y_Cali + y_Dagua + y_Jamundi + y_La_Cumbre + y_Vijes + y_Yumbo = 1
_dummy: __dummy = 0
_C2: __dummy <= 0
Bounds
 __dummy = 0
Binaries
y_Cali
y_Dagua
y_Jamundi
y_La_Cumbre
y_Vijes
y_Yumbo
End
